results_rootrelaxation/bin012_060_023.srr.sol
solution status: optimal solution found
objective value:                     3.02013422818792
_var743_                            0.322147651006711 	(obj:0)
_var779_                           0.0671140939597327 	(obj:0)
_var783_                           0.0335570469798657 	(obj:0)
_var792_                            0.429530201342282 	(obj:0)
_var795_                            0.161073825503355 	(obj:0)
_var802_                            0.322147651006712 	(obj:1)
_var810_                            0.369127516778524 	(obj:0)
_var811_                             0.38255033557047 	(obj:1)
_var813_                            0.100671140939597 	(obj:1)
_var816_                            0.322147651006712 	(obj:0)
_var818_                           0.0671140939597311 	(obj:1)
_var825_                           0.0201342281879197 	(obj:1)
_var831_                            0.348993288590604 	(obj:0)
_var837_                            0.248322147651007 	(obj:0)
_var839_                            0.416107382550335 	(obj:0)
_var841_                            0.369127516778524 	(obj:0)
_var844_                            0.362416107382551 	(obj:1)
_var846_                            0.100671140939598 	(obj:1)
_var847_                            0.093959731543624 	(obj:0)
_var851_                            0.476510067114094 	(obj:1)
_var854_                           0.0469798657718125 	(obj:0)
_var855_                           0.0536912751677852 	(obj:1)
_var860_                            0.536912751677852 	(obj:0)
_var863_                            0.436241610738255 	(obj:0)
_var864_                            0.140939597315437 	(obj:0)
_var865_                            0.442953020134228 	(obj:0)
_var866_                            0.100671140939596 	(obj:1)
_var870_                           0.0738255033557048 	(obj:0)
_var878_                            0.100671140939598 	(obj:0)
_var880_                            0.442953020134228 	(obj:0)
_var881_                           0.0067114093959737 	(obj:0)
_var885_                           0.0738255033557034 	(obj:0)
_var886_                           0.0939597315436237 	(obj:0)
_var888_                           0.0872483221476512 	(obj:1)
_var890_                             0.12751677852349 	(obj:1)
_var892_                            0.449664429530201 	(obj:0)
_var894_                             0.25503355704698 	(obj:0)
_var895_                            0.308724832214765 	(obj:1)
_var896_                            0.100671140939597 	(obj:0)
_var900_                           0.0201342281879197 	(obj:0)
_var903_                            0.214765100671141 	(obj:0)
_var906_                           0.0134228187919466 	(obj:1)
_var907_                           0.0201342281879202 	(obj:0)
_var908_                           0.0939597315436247 	(obj:0)
_var909_                           0.0536912751677847 	(obj:0)
_var910_                           0.0134228187919463 	(obj:1)
_var911_                             0.38255033557047 	(obj:0)
_var912_                            0.100671140939596 	(obj:1)
_var916_                           0.0872483221476515 	(obj:0)
_var918_                            0.322147651006711 	(obj:0)
_var919_                            0.248322147651007 	(obj:1)
_var920_                           0.0134228187919461 	(obj:0)
_var921_                          0.00671140939597234 	(obj:0)
_var922_                             0.12751677852349 	(obj:0)
_var923_                           0.0939597315436244 	(obj:1)
_var924_                           0.0738255033557038 	(obj:0)
_var925_                            0.100671140939597 	(obj:0)
_var926_                           0.0402684563758392 	(obj:1)
_var927_                           0.0335570469798657 	(obj:0)
_var929_                           0.0067114093959737 	(obj:0)
_var930_                           0.0402684563758399 	(obj:0)
