results_rootrelaxation/bin012_060_023.srr.log
SCIP version 8.0.3.5 [precision: 8 byte] [memory: block] [mode: optimized] [LP solver: Soplex 6.0.1.3] [GitHash: 438792519e]
Copyright (c) 2002-2023 Zuse Institute Berlin (ZIB)

External libraries: 
  Readline 8.1         GNU library for command line editing (gnu.org/s/readline)
  Soplex 6.0.1.3       Linear Programming Solver developed at Zuse Institute Berlin (soplex.zib.de) [GitHash: 713be0fe]
  CppAD 20180000.0     Algorithmic Differentiation of C++ algorithms developed by B. Bell (github.com/coin-or/CppAD)
  ZLIB 1.2.11          General purpose compression library by J. Gailly and M. Adler (zlib.net)
  bliss 0.77           Computing Graph Automorphism Groups by T. Junttila and P. Kaski (www.tcs.hut.fi/Software/bliss/)

user parameter file <scip.set> not found - using default parameters

srr/relaxation = TRUE

read problem <instances/bin012_060_023.srr>
============

Original problem: 
original problem has 0 variables (0 bin, 0 int, 0 impl, 0 cont) and 77 constraints

presolving:
presolving (1 rounds: 1 fast, 1 medium, 1 exhaustive):
 0 deleted vars, 0 deleted constraints, 0 added constraints, 0 tightened bounds, 0 added holes, 0 changed sides, 0 changed coefficients
 0 implications, 0 cliques
presolved problem has 0 variables (0 bin, 0 int, 0 impl, 0 cont) and 77 constraints
     77 constraints of type <linear>
Presolving Time: 0.00

 time | node  | left  |LP iter|LP it/n|mem/heur|mdpt |vars |cons |rows |cuts |sepa|confs|strbr|  dualbound   | primalbound  |  gap   | compl. 
  0.0s|     1 |     0 |     1 |     - |   710k |   0 |   1 |  77 |  77 |   0 |  0 |   0 |   0 |      --      |      --      |    Inf | unknown
r 0.0s|     1 |     0 |  1014 |     - |simplero|   0 | 695 |  77 |  77 |   0 |  0 |   0 |   0 |      --      | 2.066054e+01 |    Inf | unknown
r 0.0s|     1 |     0 |  1043 |     - |simplero|   0 | 706 |  77 |  77 |   0 |  0 |   0 |   0 |      --      | 1.995259e+01 |    Inf | unknown
r 0.1s|     1 |     0 |  1097 |     - |simplero|   0 | 717 |  77 |  77 |   0 |  0 |   0 |   0 |      --      | 1.829191e+01 |    Inf | unknown
r 0.1s|     1 |     0 |  1157 |     - |simplero|   0 | 728 |  77 |  77 |   0 |  0 |   0 |   0 |      --      | 1.685110e+01 |    Inf | unknown
r 0.1s|     1 |     0 |  1231 |     - |simplero|   0 | 739 |  77 |  77 |   0 |  0 |   0 |   0 |      --      | 1.496464e+01 |    Inf | unknown
r 0.1s|     1 |     0 |  1284 |     - |simplero|   0 | 750 |  77 |  77 |   0 |  0 |   0 |   0 |      --      | 1.306610e+01 |    Inf | unknown
r 0.1s|     1 |     0 |  1321 |     - |simplero|   0 | 761 |  77 |  77 |   0 |  0 |   0 |   0 |      --      | 1.222052e+01 |    Inf | unknown
r 0.1s|     1 |     0 |  1326 |     - |simplero|   0 | 761 |  77 |  77 |   0 |  0 |   0 |   0 |      --      | 1.221537e+01 |    Inf | unknown
r 0.1s|     1 |     0 |  1376 |     - |simplero|   0 | 772 |  77 |  77 |   0 |  0 |   0 |   0 |      --      | 1.097857e+01 |    Inf | unknown
r 0.1s|     1 |     0 |  1395 |     - |simplero|   0 | 772 |  77 |  77 |   0 |  0 |   0 |   0 |      --      | 1.088203e+01 |    Inf | unknown
r 0.1s|     1 |     0 |  1440 |     - |simplero|   0 | 783 |  77 |  77 |   0 |  0 |   0 |   0 |      --      | 9.402491e+00 |    Inf | unknown
r 0.1s|     1 |     0 |  1458 |     - |simplero|   0 | 783 |  77 |  77 |   0 |  0 |   0 |   0 |      --      | 9.267184e+00 |    Inf | unknown
r 0.1s|     1 |     0 |  1495 |     - |simplero|   0 | 794 |  77 |  77 |   0 |  0 |   0 |   0 |      --      | 8.796714e+00 |    Inf | unknown
r 0.1s|     1 |     0 |  1506 |     - |simplero|   0 | 794 |  77 |  77 |   0 |  0 |   0 |   0 |      --      | 8.674105e+00 |    Inf | unknown
 time | node  | left  |LP iter|LP it/n|mem/heur|mdpt |vars |cons |rows |cuts |sepa|confs|strbr|  dualbound   | primalbound  |  gap   | compl. 
r 0.1s|     1 |     0 |  1507 |     - |simplero|   0 | 794 |  77 |  77 |   0 |  0 |   0 |   0 |      --      | 8.674028e+00 |    Inf | unknown
r 0.1s|     1 |     0 |  1537 |     - |simplero|   0 | 805 |  77 |  77 |   0 |  0 |   0 |   0 |      --      | 7.427260e+00 |    Inf | unknown
r 0.1s|     1 |     0 |  1538 |     - |simplero|   0 | 805 |  77 |  77 |   0 |  0 |   0 |   0 |      --      | 7.426662e+00 |    Inf | unknown
r 0.1s|     1 |     0 |  1569 |     - |simplero|   0 | 816 |  77 |  77 |   0 |  0 |   0 |   0 |      --      | 6.866914e+00 |    Inf | unknown
r 0.1s|     1 |     0 |  1578 |     - |simplero|   0 | 816 |  77 |  77 |   0 |  0 |   0 |   0 |      --      | 6.856282e+00 |    Inf | unknown
r 0.1s|     1 |     0 |  1612 |     - |simplero|   0 | 827 |  77 |  77 |   0 |  0 |   0 |   0 |      --      | 6.338111e+00 |    Inf | unknown
r 0.1s|     1 |     0 |  1619 |     - |simplero|   0 | 827 |  77 |  77 |   0 |  0 |   0 |   0 |      --      | 6.314370e+00 |    Inf | unknown
r 0.1s|     1 |     0 |  1621 |     - |simplero|   0 | 827 |  77 |  77 |   0 |  0 |   0 |   0 |      --      | 6.311455e+00 |    Inf | unknown
r 0.1s|     1 |     0 |  1654 |     - |simplero|   0 | 838 |  77 |  77 |   0 |  0 |   0 |   0 |      --      | 5.754908e+00 |    Inf | unknown
r 0.1s|     1 |     0 |  1655 |     - |simplero|   0 | 838 |  77 |  77 |   0 |  0 |   0 |   0 |      --      | 5.754146e+00 |    Inf | unknown
r 0.1s|     1 |     0 |  1682 |     - |simplero|   0 | 849 |  77 |  77 |   0 |  0 |   0 |   0 |      --      | 5.393288e+00 |    Inf | unknown
r 0.1s|     1 |     0 |  1697 |     - |simplero|   0 | 849 |  77 |  77 |   0 |  0 |   0 |   0 |      --      | 5.296036e+00 |    Inf | unknown
r 0.1s|     1 |     0 |  1698 |     - |simplero|   0 | 849 |  77 |  77 |   0 |  0 |   0 |   0 |      --      | 5.294987e+00 |    Inf | unknown
r 0.1s|     1 |     0 |  1727 |     - |simplero|   0 | 860 |  77 |  77 |   0 |  0 |   0 |   0 |      --      | 4.589674e+00 |    Inf | unknown
r 0.1s|     1 |     0 |  1758 |     - |simplero|   0 | 871 |  77 |  77 |   0 |  0 |   0 |   0 |      --      | 3.949201e+00 |    Inf | unknown
 time | node  | left  |LP iter|LP it/n|mem/heur|mdpt |vars |cons |rows |cuts |sepa|confs|strbr|  dualbound   | primalbound  |  gap   | compl. 
r 0.1s|     1 |     0 |  1794 |     - |simplero|   0 | 882 |  77 |  77 |   0 |  0 |   0 |   0 |      --      | 3.536094e+00 |    Inf | unknown
r 0.1s|     1 |     0 |  1796 |     - |simplero|   0 | 882 |  77 |  77 |   0 |  0 |   0 |   0 |      --      | 3.534917e+00 |    Inf | unknown
  0.1s|     1 |     0 |  1797 |     - |  4168k |   0 | 882 |  77 |  77 |   0 |  0 |   0 |   0 |      --      | 3.534917e+00 |    Inf | unknown
r 0.1s|     1 |     0 |  1797 |     - |simplero|   0 | 882 |  77 |  77 |   0 |  0 |   0 |   0 |      --      | 3.534778e+00 |    Inf | unknown
r 0.1s|     1 |     0 |  1825 |     - |simplero|   0 | 893 |  77 |  77 |   0 |  0 |   0 |   0 |      --      | 3.381920e+00 |    Inf | unknown
r 0.1s|     1 |     0 |  1830 |     - |simplero|   0 | 893 |  77 |  77 |   0 |  0 |   0 |   0 |      --      | 3.376083e+00 |    Inf | unknown
r 0.1s|     1 |     0 |  1859 |     - |simplero|   0 | 904 |  77 |  77 |   0 |  0 |   0 |   0 |      --      | 3.162977e+00 |    Inf | unknown
r 0.1s|     1 |     0 |  1874 |     - |simplero|   0 | 913 |  77 |  77 |   0 |  0 |   0 |   0 |      --      | 3.113152e+00 |    Inf | unknown
r 0.1s|     1 |     0 |  1898 |     - |simplero|   0 | 922 |  77 |  77 |   0 |  0 |   0 |   0 |      --      | 3.057007e+00 |    Inf | unknown
r 0.1s|     1 |     0 |  1906 |     - |simplero|   0 | 922 |  77 |  77 |   0 |  0 |   0 |   0 |      --      | 3.052632e+00 |    Inf | unknown
r 0.1s|     1 |     0 |  1922 |     - |simplero|   0 | 925 |  77 |  77 |   0 |  0 |   0 |   0 |      --      | 3.026316e+00 |    Inf | unknown
r 0.1s|     1 |     0 |  1933 |     - |simplero|   0 | 929 |  77 |  77 |   0 |  0 |   0 |   0 |      --      | 3.021668e+00 |    Inf | unknown
r 0.1s|     1 |     0 |  1939 |     - |simplero|   0 | 931 |  77 |  77 |   0 |  0 |   0 |   0 |      --      | 3.020134e+00 |    Inf | unknown
  0.1s|     1 |     0 |  1939 |     - |  4240k |   0 | 931 |  77 |  77 |   0 |  0 |   0 |   0 | 3.020134e+00 | 3.020134e+00 |   0.00%| unknown
  0.1s|     1 |     0 |  1939 |     - |  4240k |   0 | 931 |  77 |  77 |   0 |  0 |   0 |   0 | 3.020134e+00 | 3.020134e+00 |   0.00%| unknown

SCIP Status        : problem is solved [optimal solution found]
Solving Time (sec) : 0.10
Solving Nodes      : 1
Primal Bound       : +3.02013422818792e+00 (41 solutions)
Dual Bound         : +3.02013422818792e+00
Gap                : 0.00 %

written transformed problem to file <results_rootrelaxation/bin012_060_023.srr.lp>
written transformed problem to file <results_rootrelaxation/bin012_060_023.srr.cip>


SCIP version 8.0.3.5 [precision: 8 byte] [memory: block] [mode: optimized] [LP solver: Soplex 6.0.1.3] [GitHash: 438792519e]
Copyright (c) 2002-2023 Zuse Institute Berlin (ZIB)

External libraries: 
  Readline 8.1         GNU library for command line editing (gnu.org/s/readline)
  Soplex 6.0.1.3       Linear Programming Solver developed at Zuse Institute Berlin (soplex.zib.de) [GitHash: 713be0fe]
  CppAD 20180000.0     Algorithmic Differentiation of C++ algorithms developed by B. Bell (github.com/coin-or/CppAD)
  ZLIB 1.2.11          General purpose compression library by J. Gailly and M. Adler (zlib.net)
  bliss 0.77           Computing Graph Automorphism Groups by T. Junttila and P. Kaski (www.tcs.hut.fi/Software/bliss/)

user parameter file <scip.set> not found - using default parameters

srr/relaxation = TRUE

read problem <instances/bin012_060_023.srr>
============

Original problem: 
original problem has 0 variables (0 bin, 0 int, 0 impl, 0 cont) and 77 constraints

presolving:
presolving (1 rounds: 1 fast, 1 medium, 1 exhaustive):
 0 deleted vars, 0 deleted constraints, 0 added constraints, 0 tightened bounds, 0 added holes, 0 changed sides, 0 changed coefficients
 0 implications, 0 cliques
presolved problem has 0 variables (0 bin, 0 int, 0 impl, 0 cont) and 77 constraints
     77 constraints of type <linear>
Presolving Time: 0.00

 time | node  | left  |LP iter|LP it/n|mem/heur|mdpt |vars |cons |rows |cuts |sepa|confs|strbr|  dualbound   | primalbound  |  gap   | compl. 
  0.0s|     1 |     0 |     1 |     - |   710k |   0 |   1 |  77 |  77 |   0 |  0 |   0 |   0 |      --      |      --      |    Inf | unknown
r 0.1s|     1 |     0 |  1014 |     - |simplero|   0 | 695 |  77 |  77 |   0 |  0 |   0 |   0 |      --      | 2.066054e+01 |    Inf | unknown
r 0.1s|     1 |     0 |  1043 |     - |simplero|   0 | 706 |  77 |  77 |   0 |  0 |   0 |   0 |      --      | 1.995259e+01 |    Inf | unknown
r 0.1s|     1 |     0 |  1097 |     - |simplero|   0 | 717 |  77 |  77 |   0 |  0 |   0 |   0 |      --      | 1.829191e+01 |    Inf | unknown
r 0.1s|     1 |     0 |  1157 |     - |simplero|   0 | 728 |  77 |  77 |   0 |  0 |   0 |   0 |      --      | 1.685110e+01 |    Inf | unknown
r 0.1s|     1 |     0 |  1231 |     - |simplero|   0 | 739 |  77 |  77 |   0 |  0 |   0 |   0 |      --      | 1.496464e+01 |    Inf | unknown
r 0.1s|     1 |     0 |  1284 |     - |simplero|   0 | 750 |  77 |  77 |   0 |  0 |   0 |   0 |      --      | 1.306610e+01 |    Inf | unknown
r 0.1s|     1 |     0 |  1321 |     - |simplero|   0 | 761 |  77 |  77 |   0 |  0 |   0 |   0 |      --      | 1.222052e+01 |    Inf | unknown
r 0.1s|     1 |     0 |  1326 |     - |simplero|   0 | 761 |  77 |  77 |   0 |  0 |   0 |   0 |      --      | 1.221537e+01 |    Inf | unknown
r 0.1s|     1 |     0 |  1376 |     - |simplero|   0 | 772 |  77 |  77 |   0 |  0 |   0 |   0 |      --      | 1.097857e+01 |    Inf | unknown
r 0.1s|     1 |     0 |  1395 |     - |simplero|   0 | 772 |  77 |  77 |   0 |  0 |   0 |   0 |      --      | 1.088203e+01 |    Inf | unknown
r 0.1s|     1 |     0 |  1440 |     - |simplero|   0 | 783 |  77 |  77 |   0 |  0 |   0 |   0 |      --      | 9.402491e+00 |    Inf | unknown
r 0.1s|     1 |     0 |  1458 |     - |simplero|   0 | 783 |  77 |  77 |   0 |  0 |   0 |   0 |      --      | 9.267184e+00 |    Inf | unknown
r 0.1s|     1 |     0 |  1495 |     - |simplero|   0 | 794 |  77 |  77 |   0 |  0 |   0 |   0 |      --      | 8.796714e+00 |    Inf | unknown
r 0.1s|     1 |     0 |  1506 |     - |simplero|   0 | 794 |  77 |  77 |   0 |  0 |   0 |   0 |      --      | 8.674105e+00 |    Inf | unknown
 time | node  | left  |LP iter|LP it/n|mem/heur|mdpt |vars |cons |rows |cuts |sepa|confs|strbr|  dualbound   | primalbound  |  gap   | compl. 
r 0.1s|     1 |     0 |  1507 |     - |simplero|   0 | 794 |  77 |  77 |   0 |  0 |   0 |   0 |      --      | 8.674028e+00 |    Inf | unknown
r 0.1s|     1 |     0 |  1537 |     - |simplero|   0 | 805 |  77 |  77 |   0 |  0 |   0 |   0 |      --      | 7.427260e+00 |    Inf | unknown
r 0.1s|     1 |     0 |  1538 |     - |simplero|   0 | 805 |  77 |  77 |   0 |  0 |   0 |   0 |      --      | 7.426662e+00 |    Inf | unknown
r 0.1s|     1 |     0 |  1569 |     - |simplero|   0 | 816 |  77 |  77 |   0 |  0 |   0 |   0 |      --      | 6.866914e+00 |    Inf | unknown
r 0.1s|     1 |     0 |  1578 |     - |simplero|   0 | 816 |  77 |  77 |   0 |  0 |   0 |   0 |      --      | 6.856282e+00 |    Inf | unknown
r 0.1s|     1 |     0 |  1612 |     - |simplero|   0 | 827 |  77 |  77 |   0 |  0 |   0 |   0 |      --      | 6.338111e+00 |    Inf | unknown
r 0.1s|     1 |     0 |  1619 |     - |simplero|   0 | 827 |  77 |  77 |   0 |  0 |   0 |   0 |      --      | 6.314370e+00 |    Inf | unknown
r 0.1s|     1 |     0 |  1621 |     - |simplero|   0 | 827 |  77 |  77 |   0 |  0 |   0 |   0 |      --      | 6.311455e+00 |    Inf | unknown
r 0.1s|     1 |     0 |  1654 |     - |simplero|   0 | 838 |  77 |  77 |   0 |  0 |   0 |   0 |      --      | 5.754908e+00 |    Inf | unknown
r 0.1s|     1 |     0 |  1655 |     - |simplero|   0 | 838 |  77 |  77 |   0 |  0 |   0 |   0 |      --      | 5.754146e+00 |    Inf | unknown
r 0.1s|     1 |     0 |  1682 |     - |simplero|   0 | 849 |  77 |  77 |   0 |  0 |   0 |   0 |      --      | 5.393288e+00 |    Inf | unknown
r 0.1s|     1 |     0 |  1697 |     - |simplero|   0 | 849 |  77 |  77 |   0 |  0 |   0 |   0 |      --      | 5.296036e+00 |    Inf | unknown
r 0.1s|     1 |     0 |  1698 |     - |simplero|   0 | 849 |  77 |  77 |   0 |  0 |   0 |   0 |      --      | 5.294987e+00 |    Inf | unknown
r 0.1s|     1 |     0 |  1727 |     - |simplero|   0 | 860 |  77 |  77 |   0 |  0 |   0 |   0 |      --      | 4.589674e+00 |    Inf | unknown
r 0.1s|     1 |     0 |  1758 |     - |simplero|   0 | 871 |  77 |  77 |   0 |  0 |   0 |   0 |      --      | 3.949201e+00 |    Inf | unknown
 time | node  | left  |LP iter|LP it/n|mem/heur|mdpt |vars |cons |rows |cuts |sepa|confs|strbr|  dualbound   | primalbound  |  gap   | compl. 
r 0.1s|     1 |     0 |  1794 |     - |simplero|   0 | 882 |  77 |  77 |   0 |  0 |   0 |   0 |      --      | 3.536094e+00 |    Inf | unknown
r 0.1s|     1 |     0 |  1796 |     - |simplero|   0 | 882 |  77 |  77 |   0 |  0 |   0 |   0 |      --      | 3.534917e+00 |    Inf | unknown
  0.1s|     1 |     0 |  1797 |     - |  4168k |   0 | 882 |  77 |  77 |   0 |  0 |   0 |   0 |      --      | 3.534917e+00 |    Inf | unknown
r 0.1s|     1 |     0 |  1797 |     - |simplero|   0 | 882 |  77 |  77 |   0 |  0 |   0 |   0 |      --      | 3.534778e+00 |    Inf | unknown
r 0.1s|     1 |     0 |  1825 |     - |simplero|   0 | 893 |  77 |  77 |   0 |  0 |   0 |   0 |      --      | 3.381920e+00 |    Inf | unknown
r 0.1s|     1 |     0 |  1830 |     - |simplero|   0 | 893 |  77 |  77 |   0 |  0 |   0 |   0 |      --      | 3.376083e+00 |    Inf | unknown
r 0.1s|     1 |     0 |  1859 |     - |simplero|   0 | 904 |  77 |  77 |   0 |  0 |   0 |   0 |      --      | 3.162977e+00 |    Inf | unknown
r 0.1s|     1 |     0 |  1874 |     - |simplero|   0 | 913 |  77 |  77 |   0 |  0 |   0 |   0 |      --      | 3.113152e+00 |    Inf | unknown
r 0.1s|     1 |     0 |  1898 |     - |simplero|   0 | 922 |  77 |  77 |   0 |  0 |   0 |   0 |      --      | 3.057007e+00 |    Inf | unknown
r 0.1s|     1 |     0 |  1906 |     - |simplero|   0 | 922 |  77 |  77 |   0 |  0 |   0 |   0 |      --      | 3.052632e+00 |    Inf | unknown
r 0.1s|     1 |     0 |  1922 |     - |simplero|   0 | 925 |  77 |  77 |   0 |  0 |   0 |   0 |      --      | 3.026316e+00 |    Inf | unknown
r 0.1s|     1 |     0 |  1933 |     - |simplero|   0 | 929 |  77 |  77 |   0 |  0 |   0 |   0 |      --      | 3.021668e+00 |    Inf | unknown
r 0.1s|     1 |     0 |  1939 |     - |simplero|   0 | 931 |  77 |  77 |   0 |  0 |   0 |   0 |      --      | 3.020134e+00 |    Inf | unknown
  0.1s|     1 |     0 |  1939 |     - |  4240k |   0 | 931 |  77 |  77 |   0 |  0 |   0 |   0 | 3.020134e+00 | 3.020134e+00 |   0.00%| unknown
  0.1s|     1 |     0 |  1939 |     - |  4240k |   0 | 931 |  77 |  77 |   0 |  0 |   0 |   0 | 3.020134e+00 | 3.020134e+00 |   0.00%| unknown

SCIP Status        : problem is solved [optimal solution found]
Solving Time (sec) : 0.13
Solving Nodes      : 1
Primal Bound       : +3.02013422818792e+00 (41 solutions)
Dual Bound         : +3.02013422818792e+00
Gap                : 0.00 %

written transformed problem to file <results_rootrelaxation/bin012_060_023.srr.lp>
written transformed problem to file <results_rootrelaxation/bin012_060_023.srr.cip>

written solution information to file <results_rootrelaxation/bin012_060_023.srr.sol>



